language ESSENCE' 1.0

letting jobs = 102
letting horizon = 807
letting resourcesRenew = 2
letting resourcesNonrenew = 2
letting resourceLimits = [50, 53, 180, 147]
letting successors = [[2, 3, 4, 5, 6, 7, 8, 9, 11, 12, 13, 14, 15, 16, 17, 18, 19, 22, 23, 24, 29, 30, 33, 37, 40], [100, 94, 93, 71, 70, 67, 64, 59, 55, 52, 51, 49, 47, 46, 45, 42, 41, 34, 31, 25], [101, 100, 96, 95, 94, 93, 71, 64, 59, 55, 50, 49, 47, 46, 45, 42, 21, 20], [96, 69, 65, 60, 59, 55, 48, 46, 45, 43, 41, 31, 28, 10], [101, 97, 89, 70, 69, 66, 65, 58, 55, 54, 52, 51, 48, 47, 45, 39, 36, 35, 27], [97, 96, 94, 93, 92, 87, 71, 70, 69, 67, 64, 59, 55, 54, 53, 50, 49, 47, 46, 42, 34, 32], [98, 97, 96, 94, 87, 70, 69, 68, 64, 60, 59, 56, 55, 54, 53, 48, 47, 41, 34, 32], [95, 94, 90, 65, 64, 60, 47, 45, 26, 21], [100, 99, 98, 97, 96, 94, 88, 84, 75, 70, 69, 68, 64, 54, 51, 50, 49, 48, 34], [101, 100, 98, 97, 95, 92, 91, 89, 88, 87, 86, 83, 82, 79, 68, 67, 64, 63, 57, 54, 47, 35], [101, 99, 95, 93, 92, 90, 86, 83, 69, 66, 60, 58, 55, 54, 51, 49, 47, 42], [101, 100, 96, 95, 94, 93, 92, 91, 87, 83, 71, 64, 55, 54, 46, 42, 32], [97, 96, 87, 83, 67, 65, 61, 58, 49, 26], [99, 96, 86, 67, 66, 61, 59, 55, 52, 49, 42, 38], [100, 96, 93, 90, 84, 64, 63, 55, 52, 49, 45, 41], [99, 95, 94, 92, 89, 86, 85, 82, 81, 79, 68, 66, 63, 55, 52, 47, 42], [100, 99, 98, 96, 95, 94, 88, 87, 84, 80, 77, 70, 61, 58, 32], [97, 96, 95, 94, 93, 92, 91, 89, 87, 84, 83, 82, 80, 79, 77, 76, 75, 65, 64, 61, 57, 54, 53], [101, 98, 95, 94, 93, 88, 86, 83, 77, 67, 63, 60, 57, 54, 51, 46], [92, 90, 87, 84, 82, 77, 76, 69, 67, 66, 65, 63, 61, 54, 44], [98, 97, 92, 91, 87, 86, 84, 82, 80, 79, 68, 67, 66, 58, 57, 48], [95, 91, 90, 87, 84, 83, 82, 81, 79, 66, 63, 61, 55, 42], [96, 92, 88, 84, 82, 79, 77, 75, 74, 73, 67, 64, 63, 53, 45], [92, 88, 86, 85, 83, 77, 66, 58, 57, 49, 46], [98, 96, 95, 92, 91, 89, 87, 85, 84, 82, 81, 79, 77, 76, 69, 66, 61, 58], [93, 86, 85, 84, 82, 79, 66, 63, 55, 54, 42], [99, 96, 93, 92, 88, 87, 85, 84, 83, 81, 80, 79, 75, 74, 73, 68, 63, 62, 59], [100, 90, 87, 86, 85, 84, 83, 82, 79, 78, 77, 75, 74, 73, 72, 49], [94, 93, 92, 89, 87, 81, 80, 79, 75, 73, 64, 45], [98, 92, 86, 83, 82, 81, 80, 79, 78, 76, 75, 63, 61, 57], [99, 97, 89, 86, 85, 83, 81, 80, 77, 76, 75, 57, 54], [90, 89, 86, 85, 82, 79, 78, 76, 75, 74, 65, 62, 57], [97, 94, 92, 91, 87, 84, 82, 79, 78, 77, 74, 62, 57], [95, 90, 83, 82, 79, 78, 77, 74, 65, 63, 62, 57], [94, 93, 90, 84, 80, 78, 77, 76, 75, 74, 73, 61], [94, 91, 90, 86, 83, 82, 79, 77, 76, 74, 64, 62], [98, 92, 89, 88, 87, 84, 81, 61, 55], [93, 90, 87, 85, 84, 83, 82, 79, 75, 74, 73, 72], [91, 84, 83, 82, 77, 76, 75, 74, 63, 57], [93, 86, 85, 80, 77, 68, 62, 58, 57], [92, 88, 86, 82, 79, 77, 76, 75, 57], [88, 80, 78, 76, 75, 74, 62, 57], [89, 88, 81, 79, 78, 76, 73, 61], [89, 88, 86, 80, 79, 75, 73, 72], [86, 85, 83, 78, 76, 62], [84, 82, 80, 75, 61], [84, 80, 78, 61], [81, 78, 77, 61], [91, 89, 81, 80, 76], [83, 62, 57], [87, 85, 79, 74], [87, 83, 74, 73], [90, 85, 78, 72], [78, 74, 72], [80, 77, 73], [91, 74, 72], [73, 72], [75, 72], [76, 72], [82, 76], [62], [72], [72], [85], [81], [74], [81], [72], [72], [83], [77], [102], [102], [102], [102], [102], [102], [102], [102], [102], [102], [102], [102], [102], [102], [102], [102], [102], [102], [102], [102], [102], [102], [102], [102], [102], [102], [102], [102], [102], [102], []]
letting durations = [[0], [4, 5, 7], [6, 8, 10], [1, 2, 3], [4, 7, 8], [1, 3, 8], [2, 8, 9], [1, 6, 8], [3, 3, 4], [7, 7, 9], [7, 7, 10], [2, 3, 5], [5, 6, 10], [2, 5, 5], [5, 6, 9], [2, 6, 10], [3, 5, 6], [2, 7, 10], [4, 7, 10], [4, 6, 10], [1, 9, 9], [1, 6, 8], [3, 4, 5], [2, 3, 9], [5, 7, 9], [6, 7, 8], [3, 8, 9], [3, 5, 9], [4, 9, 10], [2, 3, 8], [2, 7, 10], [2, 4, 5], [5, 6, 7], [3, 6, 9], [1, 7, 10], [1, 5, 5], [1, 8, 10], [1, 5, 6], [2, 7, 9], [2, 3, 4], [3, 8, 9], [2, 3, 5], [2, 3, 10], [2, 8, 10], [1, 7, 8], [4, 6, 7], [1, 8, 9], [6, 6, 7], [2, 5, 6], [1, 6, 8], [7, 10, 10], [1, 3, 8], [4, 5, 5], [5, 7, 10], [4, 7, 9], [6, 9, 10], [1, 6, 10], [4, 5, 9], [2, 4, 8], [2, 6, 7], [3, 7, 10], [3, 5, 9], [2, 8, 10], [1, 5, 8], [1, 1, 4], [1, 2, 6], [8, 9, 10], [1, 5, 8], [1, 5, 6], [3, 5, 10], [3, 9, 9], [6, 9, 10], [2, 6, 9], [3, 4, 9], [3, 4, 6], [2, 4, 10], [2, 6, 7], [3, 4, 6], [5, 6, 8], [4, 8, 10], [4, 6, 10], [1, 2, 10], [1, 1, 2], [2, 2, 9], [2, 2, 8], [5, 5, 6], [1, 2, 8], [7, 8, 9], [5, 9, 10], [1, 1, 5], [3, 5, 5], [2, 6, 9], [2, 5, 7], [3, 6, 7], [4, 8, 10], [2, 3, 6], [5, 7, 10], [1, 3, 9], [1, 4, 10], [1, 4, 7], [2, 6, 10], [0]]
letting resourceUsage = [[[0, 0, 0, 0]], [[4, 0, 2, 0], [0, 3, 2, 0], [2, 0, 2, 0]], [[0, 4, 2, 0], [0, 3, 0, 2], [2, 0, 0, 1]], [[0, 2, 0, 5], [0, 1, 4, 0], [3, 0, 0, 3]], [[0, 2, 5, 0], [4, 0, 4, 0], [4, 0, 3, 0]], [[0, 4, 8, 0], [2, 0, 7, 0], [0, 1, 2, 0]], [[3, 0, 0, 7], [3, 0, 0, 6], [0, 3, 0, 3]], [[0, 3, 0, 6], [4, 0, 0, 6], [0, 1, 4, 0]], [[0, 4, 6, 0], [2, 0, 0, 6], [1, 0, 0, 1]], [[0, 2, 0, 7], [5, 0, 0, 5], [0, 2, 0, 2]], [[0, 4, 0, 2], [2, 0, 0, 1], [0, 1, 2, 0]], [[2, 0, 6, 0], [1, 0, 0, 3], [0, 4, 5, 0]], [[2, 0, 0, 9], [0, 1, 2, 0], [2, 0, 2, 0]], [[2, 0, 0, 2], [2, 0, 0, 1], [0, 2, 0, 1]], [[4, 0, 0, 4], [0, 2, 8, 0], [3, 0, 0, 4]], [[0, 2, 5, 0], [0, 1, 0, 7], [4, 0, 4, 0]], [[0, 5, 0, 3], [3, 0, 0, 2], [0, 2, 7, 0]], [[0, 4, 9, 0], [0, 3, 4, 0], [0, 3, 2, 0]], [[0, 3, 0, 6], [0, 3, 4, 0], [1, 0, 4, 0]], [[0, 5, 0, 3], [4, 0, 4, 0], [4, 0, 0, 1]], [[0, 3, 7, 0], [4, 0, 0, 4], [0, 2, 1, 0]], [[2, 0, 0, 6], [0, 3, 0, 5], [2, 0, 0, 3]], [[0, 3, 6, 0], [0, 3, 4, 0], [3, 0, 0, 1]], [[2, 0, 0, 5], [2, 0, 0, 3], [1, 0, 0, 1]], [[0, 5, 0, 6], [0, 4, 6, 0], [0, 4, 0, 5]], [[3, 0, 2, 0], [3, 0, 0, 3], [3, 0, 1, 0]], [[5, 0, 7, 0], [0, 2, 6, 0], [3, 0, 3, 0]], [[0, 3, 9, 0], [0, 2, 0, 3], [1, 0, 7, 0]], [[0, 2, 7, 0], [1, 0, 7, 0], [1, 0, 6, 0]], [[0, 3, 7, 0], [4, 0, 6, 0], [0, 1, 4, 0]], [[3, 0, 0, 8], [0, 5, 0, 6], [3, 0, 2, 0]], [[0, 4, 10, 0], [3, 0, 0, 4], [3, 0, 0, 3]], [[5, 0, 0, 7], [4, 0, 2, 0], [0, 2, 1, 0]], [[0, 5, 10, 0], [2, 0, 0, 2], [2, 0, 10, 0]], [[3, 0, 5, 0], [0, 3, 0, 5], [0, 3, 0, 4]], [[3, 0, 0, 2], [2, 0, 0, 2], [0, 5, 3, 0]], [[0, 3, 10, 0], [2, 0, 5, 0], [2, 0, 3, 0]], [[0, 3, 10, 0], [1, 0, 8, 0], [1, 0, 0, 2]], [[4, 0, 8, 0], [0, 3, 0, 6], [1, 0, 0, 2]], [[2, 0, 0, 7], [0, 1, 0, 6], [1, 0, 3, 0]], [[4, 0, 0, 7], [0, 1, 2, 0], [2, 0, 0, 5]], [[0, 4, 0, 6], [0, 4, 3, 0], [0, 4, 1, 0]], [[2, 0, 0, 10], [0, 1, 0, 7], [1, 0, 6, 0]], [[3, 0, 0, 8], [3, 0, 0, 6], [0, 1, 0, 6]], [[3, 0, 0, 5], [2, 0, 0, 4], [1, 0, 0, 3]], [[1, 0, 10, 0], [0, 3, 0, 1], [1, 0, 0, 1]], [[4, 0, 0, 7], [0, 2, 0, 3], [0, 2, 4, 0]], [[0, 3, 5, 0], [3, 0, 3, 0], [3, 0, 2, 0]], [[0, 4, 0, 9], [0, 4, 0, 7], [0, 4, 0, 6]], [[0, 4, 10, 0], [0, 2, 0, 1], [0, 1, 0, 1]], [[3, 0, 3, 0], [0, 2, 0, 6], [2, 0, 0, 6]], [[0, 4, 0, 4], [4, 0, 6, 0], [0, 1, 0, 2]], [[3, 0, 2, 0], [3, 0, 1, 0], [2, 0, 0, 5]], [[0, 1, 0, 6], [0, 1, 7, 0], [4, 0, 5, 0]], [[4, 0, 0, 9], [3, 0, 5, 0], [1, 0, 0, 6]], [[5, 0, 0, 6], [0, 3, 0, 5], [0, 1, 3, 0]], [[0, 2, 8, 0], [2, 0, 8, 0], [2, 0, 0, 2]], [[0, 2, 7, 0], [0, 1, 5, 0], [0, 1, 4, 0]], [[4, 0, 2, 0], [0, 3, 1, 0], [0, 2, 0, 4]], [[4, 0, 10, 0], [0, 3, 0, 2], [0, 1, 0, 1]], [[4, 0, 1, 0], [3, 0, 0, 6], [3, 0, 0, 4]], [[0, 5, 7, 0], [3, 0, 7, 0], [0, 3, 0, 2]], [[0, 3, 0, 6], [0, 3, 0, 5], [1, 0, 2, 0]], [[0, 2, 0, 8], [0, 2, 0, 5], [2, 0, 0, 4]], [[4, 0, 0, 1], [3, 0, 7, 0], [2, 0, 6, 0]], [[2, 0, 7, 0], [0, 2, 0, 3], [0, 2, 0, 1]], [[0, 4, 5, 0], [2, 0, 0, 3], [0, 3, 0, 2]], [[1, 0, 9, 0], [1, 0, 0, 2], [1, 0, 0, 1]], [[0, 1, 10, 0], [0, 1, 9, 0], [0, 1, 8, 0]], [[3, 0, 5, 0], [0, 2, 0, 6], [0, 2, 5, 0]], [[0, 4, 5, 0], [1, 0, 0, 9], [0, 3, 0, 9]], [[0, 3, 0, 1], [2, 0, 3, 0], [2, 0, 2, 0]], [[2, 0, 6, 0], [0, 1, 4, 0], [2, 0, 0, 1]], [[2, 0, 10, 0], [0, 3, 0, 6], [1, 0, 0, 4]], [[2, 0, 10, 0], [2, 0, 9, 0], [0, 3, 9, 0]], [[0, 5, 9, 0], [0, 3, 0, 3], [5, 0, 3, 0]], [[0, 2, 10, 0], [0, 2, 0, 7], [0, 1, 1, 0]], [[5, 0, 0, 10], [0, 1, 5, 0], [3, 0, 0, 5]], [[0, 1, 0, 10], [0, 1, 5, 0], [0, 1, 0, 9]], [[0, 5, 10, 0], [1, 0, 0, 5], [0, 2, 0, 3]], [[0, 4, 0, 3], [3, 0, 10, 0], [0, 2, 10, 0]], [[0, 4, 0, 9], [2, 0, 3, 0], [0, 3, 3, 0]], [[2, 0, 5, 0], [0, 2, 4, 0], [0, 2, 3, 0]], [[0, 3, 10, 0], [2, 0, 8, 0], [2, 0, 0, 3]], [[0, 2, 0, 4], [3, 0, 9, 0], [0, 1, 7, 0]], [[4, 0, 0, 9], [0, 4, 0, 8], [0, 4, 0, 7]], [[2, 0, 0, 5], [2, 0, 0, 4], [0, 4, 5, 0]], [[5, 0, 0, 9], [4, 0, 3, 0], [4, 0, 1, 0]], [[3, 0, 1, 0], [2, 0, 1, 0], [1, 0, 0, 9]], [[0, 5, 0, 6], [2, 0, 0, 6], [0, 3, 0, 5]], [[1, 0, 0, 6], [0, 2, 0, 5], [1, 0, 2, 0]], [[4, 0, 8, 0], [0, 3, 6, 0], [3, 0, 5, 0]], [[0, 4, 6, 0], [0, 4, 0, 4], [0, 2, 2, 0]], [[2, 0, 8, 0], [0, 1, 9, 0], [0, 1, 8, 0]], [[0, 4, 0, 4], [1, 0, 0, 4], [0, 2, 4, 0]], [[0, 3, 0, 9], [0, 3, 0, 8], [2, 0, 0, 6]], [[3, 0, 5, 0], [0, 1, 3, 0], [2, 0, 2, 0]], [[0, 3, 0, 8], [0, 3, 0, 7], [3, 0, 0, 7]], [[5, 0, 9, 0], [2, 0, 9, 0], [0, 1, 9, 0]], [[4, 0, 9, 0], [3, 0, 0, 4], [0, 4, 9, 0]], [[4, 0, 0, 5], [0, 3, 0, 4], [0, 3, 0, 3]], [[0, 0, 0, 0]]]
